>> Start of run:  24-MAY-2021  23:13:34

reinit: Reading from RUN.fdf

reinit: -----------------------------------------------------------------------
reinit: System Name:
reinit: -----------------------------------------------------------------------
reinit: System Label: agnr7
reinit: -----------------------------------------------------------------------

initatom: Reading input for the pseudopotentials and atomic orbitals ----------
Species number:   1 Atomic number:    6 Label: C

Ground state valence configuration:   2s02  2p02
Reading pseudopotential information in formatted form from C.psf

Valence configuration for pseudopotential generation:
2s( 2.00) rc: 1.20
2p( 2.00) rc: 1.19
3d( 0.00) rc: 1.43
4f( 0.00) rc: 1.43
For C, standard SIESTA heuristics set lmxkb to 3
 (one more than the basis l, including polarization orbitals).
Use PS.lmax or PS.KBprojectors blocks to override.

<basis_specs>
C                    Z=   6    Mass=  12.010        Charge= 0.17977+309
Lmxo=1 Lmxkb= 3    BasisType=split      Semic=F
L=0  Nsemic=0  Cnfigmx=2
          i=1  nzeta=1  polorb=0  (2s)
            splnorm:   0.15000
               vcte:    0.0000
               rinn:    0.0000
               qcoe:    0.0000
               qyuk:    0.0000
               qwid:   0.10000E-01
                rcs:    0.0000
            lambdas:    1.0000
L=1  Nsemic=0  Cnfigmx=2
          i=1  nzeta=1  polorb=1  (2p)
            splnorm:   0.15000
               vcte:    0.0000
               rinn:    0.0000
               qcoe:    0.0000
               qyuk:    0.0000
               qwid:   0.10000E-01
                rcs:    0.0000
            lambdas:    1.0000
L=0  Nkbl=1  erefs: 0.17977+309
L=1  Nkbl=1  erefs: 0.17977+309
L=2  Nkbl=1  erefs: 0.17977+309
L=3  Nkbl=1  erefs: 0.17977+309
</basis_specs>

atom: Called for C                     (Z =   6)

read_vps: Pseudopotential generation method:
read_vps: ATM3      Troullier-Martins
Valence charge for ps generation:    4.00000

read_vps: Pseudopotential includes a core correction:
read_vps: Pseudo-core for xc-correction

xc_check: Exchange-correlation functional:
xc_check: Ceperley-Alder
xc_check: WARNING: Pseudopotential generated with GGA PBE functional
V l=0 = -2*Zval/r beyond r=  1.2007
V l=1 = -2*Zval/r beyond r=  1.1710
V l=2 = -2*Zval/r beyond r=  1.4126
V l=3 = -2*Zval/r beyond r=  1.3951
All V_l potentials equal beyond r=  1.3951
This should be close to max(r_c) in ps generation
All pots = -2*Zval/r beyond r=  1.4126

VLOCAL1: 99.0% of the norm of Vloc inside     22.304 Ry
VLOCAL1: 99.9% of the norm of Vloc inside     50.830 Ry
atom: Maximum radius for 4*pi*r*r*local-pseudopot. charge    1.68286
atom: Maximum radius for r*vlocal+2*Zval:    1.44839

KBgen: Kleinman-Bylander projectors:
GHOST: No ghost state for L =  0
   l= 0   rc=  1.561233   el= -0.999550   Ekb=  7.980813   kbcos=  0.258020
GHOST: No ghost state for L =  1
   l= 1   rc=  1.561233   el= -0.384441   Ekb= -5.415610   kbcos= -0.290546
GHOST: No ghost state for L =  2
   l= 2   rc=  1.682861   el=  0.002326   Ekb= -0.997808   kbcos= -0.007543
GHOST: No ghost state for L =  3
   l= 3   rc=  1.791422   el=  0.003420   Ekb= -0.399024   kbcos= -0.000914

KBgen: Total number of  Kleinman-Bylander projectors:   16
atom: -------------------------------------------------------------------------

atom: SANKEY-TYPE ORBITALS:

SPLIT: Orbitals with angular momentum L= 0

SPLIT: Basis orbitals for state 2s

SPLIT: PAO cut-off radius determined from an
SPLIT: energy shift=  0.020000 Ry

   izeta = 1
                 lambda =    1.000000
                     rc =    4.191849
                 energy =   -0.981481
                kinetic =    0.927322
    potential(screened) =   -1.908803
       potential(ionic) =   -5.493960

SPLIT: Orbitals with angular momentum L= 1

SPLIT: Basis orbitals for state 2p

SPLIT: PAO cut-off radius determined from an
SPLIT: energy shift=  0.020000 Ry

   izeta = 1
                 lambda =    1.000000
                     rc =    4.993604
                 energy =   -0.366603
                kinetic =    2.545794
    potential(screened) =   -2.912398
       potential(ionic) =   -6.373834

POLgen: Perturbative polarization orbital with L=  2

POLgen: Polarization orbital for state 2p

   izeta = 1
                     rc =    4.993604
                 energy =    1.231019
                kinetic =    2.503133
    potential(screened) =   -1.272114
       potential(ionic) =   -4.173876
atom: Total number of Sankey-type orbitals:  9

atm_pop: Valence configuration (for local Pseudopot. screening):
 2s( 2.00)
 2p( 2.00)
Vna: chval, zval:    4.00000   4.00000

Vna:  Cut-off radius for the neutral-atom potential:   4.993604
comcore: Pseudo-core radius Rcore=  1.791422

atom: _________________________________________________________________________

prinput: Basis input ----------------------------------------------------------

PAO.BasisType split

%block ChemicalSpeciesLabel
    1    6 C                       # Species index, atomic number, species label
%endblock ChemicalSpeciesLabel

%block PAO.Basis                 # Define Basis set
C                     2                    # Species label, number of l-shells
 n=2   0   1                         # n, l, Nzeta
   4.192
   1.000
 n=2   1   1 P   1                   # n, l, Nzeta, Polarization, NzetaPol
   4.994
   1.000
%endblock PAO.Basis

prinput: ----------------------------------------------------------------------

coor:   Atomic-coordinates input format  =     Cartesian coordinates
coor:                                          (in Angstroms)

siesta: Atomic coordinates (Bohr) and species
siesta:      0.00000  21.23754   0.00000  1        1
siesta:      0.00000  25.91807   0.00000  1        2
siesta:      0.00000  30.59861   0.00000  1        3
siesta:      1.35115  18.89727   0.00000  1        4
siesta:      1.35115  23.57781   0.00000  1        5
siesta:      1.35115  28.25834   0.00000  1        6
siesta:      1.35115  32.93888   0.00000  1        7
siesta:      4.05346  18.89727   0.00000  1        8
siesta:      4.05346  23.57781   0.00000  1        9
siesta:      4.05346  28.25834   0.00000  1       10
siesta:      4.05346  32.93888   0.00000  1       11
siesta:      5.40462  21.23754   0.00000  1       12
siesta:      5.40462  25.91807   0.00000  1       13
siesta:      5.40462  30.59861   0.00000  1       14

siesta: System type = chain

initatomlists: Number of atoms, orbitals, and projectors:     14   126   224

siesta: ******************** Simulation parameters ****************************
siesta:
siesta: The following are some of the parameters of the simulation.
siesta: A complete list of the parameters used, including default values,
siesta: can be found in file out.fdf
siesta:
redata: Spin configuration                          = none
redata: Number of spin components                   = 1
redata: Time-Reversal Symmetry                      = T
redata: Spin spiral                                 = F
redata: Long output                                 =   F
redata: Number of Atomic Species                    =        1
redata: Charge density info will appear in .RHO file
redata: Write Mulliken Pop.                         = NO
redata: Matel table size (NRTAB)                    =     1024
redata: Mesh Cutoff                                 =   250.0000 Ry
redata: Net charge of the system                    =     0.0000 |e|
redata: Min. number of SCF Iter                     =        0
redata: Max. number of SCF Iter                     =     1000
redata: SCF convergence failure will abort job
redata: SCF mix quantity                            = Hamiltonian
redata: Mix DM or H after convergence               =   F
redata: Recompute H after scf cycle                 =   F
redata: Mix DM in first SCF step                    =   T
redata: Write Pulay info on disk                    =   F
redata: New DM Occupancy tolerance                  = 0.000000000001
redata: No kicks to SCF
redata: DM Mixing Weight for Kicks                  =     0.5000
redata: Require Harris convergence for SCF          =   F
redata: Harris energy tolerance for SCF             =     0.000100 eV
redata: Require DM convergence for SCF              =   T
redata: DM tolerance for SCF                        =     0.000100
redata: Require EDM convergence for SCF             =   F
redata: EDM tolerance for SCF                       =     0.001000 eV
redata: Require H convergence for SCF               =   T
redata: Hamiltonian tolerance for SCF               =     0.001000 eV
redata: Require (free) Energy convergence for SCF   =   F
redata: (free) Energy tolerance for SCF             =     0.000100 eV
redata: Using Saved Data (generic)                  =   F
redata: Use continuation files for DM               =   F
redata: Neglect nonoverlap interactions             =   F
redata: Method of Calculation                       = Diagonalization
redata: Electronic Temperature                      =   299.9869 K
redata: Fix the spin of the system                  =   F
redata: Max. number of TDED Iter                    =        1
redata: Number of TDED substeps                     =        3
redata: Dynamics option                             = Single-point calculation
mix.SCF: Pulay mixing                            = Pulay
mix.SCF:    Variant                              = stable
mix.SCF:    History steps                        = 2
mix.SCF:    Linear mixing weight                 =     0.250000
mix.SCF:    Mixing weight                        =     0.250000
mix.SCF:    SVD condition                        = 0.1000E-07
redata: ***********************************************************************

%block SCF.Mixers
  Pulay
%endblock SCF.Mixers

%block SCF.Mixer.Pulay
  # Mixing method
  method pulay
  variant stable

  # Mixing options
  weight 0.2500
  weight.linear 0.2500
  history 2
%endblock SCF.Mixer.Pulay

DM_history_depth set to one: no extrapolation allowed by default for geometry relaxation
Size of DM history Fstack: 1
Total number of electrons:    56.000000
Total ionic charge:    56.000000

* ProcessorY, Blocksize:    2  24

* Orbital distribution balance (max,min):    48    24

 Kpoints in:           51 . Kpoints trimmed:           51

siesta: k-grid: Number of k-points =        51
siesta: k-points from Monkhorst-Pack grid
siesta: k-cutoff (effective) =     7.150 Ang
siesta: k-point supercell and displacements
siesta: k-grid:  101   1   1      0.000
siesta: k-grid:    0   1   0      0.000
siesta: k-grid:    0   0   1      0.000

diag: Algorithm                                     = D&C
diag: Parallel over k                               =   F
diag: Use parallel 2D distribution                  =   T
diag: Parallel block-size                           = 24
diag: Parallel distribution                         =     2 x     2
diag: Used triangular part                          = Lower
diag: Absolute tolerance                            =  0.100E-15
diag: Orthogonalization factor                      =  0.100E-05

superc: Internal auxiliary supercell:     3 x     1 x     1  =       3
superc: Number of atoms, orbitals, and projectors:     42    378    672

ts: **************************************************************
ts: Save H and S matrices                           =    F
ts: Save DM and EDM matrices                        =    F
ts: Only save the overlap matrix S                  =    F
ts: **************************************************************

************************ Begin: TS CHECKS AND WARNINGS ************************
************************ End: TS CHECKS AND WARNINGS **************************

                        Single-point calculation

superc: Internal auxiliary supercell:     3 x     1 x     1  =       3
superc: Number of atoms, orbitals, and projectors:     42    378    672

outcell: Unit cell vectors (Ang):
        4.290000    0.000000    0.000000
        0.000000   29.907331    0.000000
        0.000000    0.000000   14.300000

outcell: Cell vector modules (Ang)   :    4.290000   29.907331   14.300000
outcell: Cell angles (23,13,12) (deg):     90.0000     90.0000     90.0000
outcell: Cell volume (Ang**3)        :   1834.7250
<dSpData1D:S at geom step 0
  <sparsity:sparsity for geom step 0
    nrows_g=126 nrows=48 sparsity=.7704 nnzs=12231, refcount: 7>
  <dData1D:(new from dSpData1D) n=12231, refcount: 1>
refcount: 1>
new_DM -- step:     1
Initializing Density Matrix...
DM filled with atomic data:
<dSpData2D:DM initialized from atoms
  <sparsity:sparsity for geom step 0
    nrows_g=126 nrows=48 sparsity=.7704 nnzs=12231, refcount: 8>
  <dData2D:DM n=12231 m=1, refcount: 1>
refcount: 1>
No. of atoms with KB's overlaping orbs in proc 0. Max # of overlaps:      28     117

InitMesh: MESH = 48 x 288 x 144 = 1990656
InitMesh: Mesh cutoff (required, used) =   250.000   256.290 Ry
New grid distribution [1]: sub = 2
New grid distribution [2]: sub = 2
New grid distribution [3]: sub = 2
Setting up quadratic distribution...

stepf: Fermi-Dirac step function

siesta: Program's energy decomposition (eV):
siesta: Ebs     =      -797.378554
siesta: Eions   =      3905.673802
siesta: Ena     =      1022.630654
siesta: Ekin    =      1438.005823
siesta: Enl     =       -78.522766
siesta: Eso     =         0.000000
siesta: Edftu   =         0.000000
siesta: DEna    =        30.660815
siesta: DUscf   =         2.388787
siesta: DUext   =         0.000000
siesta: Ex      =      -663.351895
siesta: Ec      =       -92.948623
siesta: Exc     =      -756.300518
siesta: eta*DQ  =         0.000000
siesta: Emadel  =         0.000000
siesta: Emeta   =         0.000000
siesta: Emolmec =         0.000000
siesta: Ekinion =         0.000000
siesta: Eharris =     -2234.191917
siesta: Etot    =     -2246.811006
siesta: FreeEng =     -2246.819508

SCF Convergence by DM+H criterion
max |DM_out - DM_in|         :     0.0000821041
max |H_out - H_in|      (eV) :     0.0009634080
SCF cycle converged after 30 iterations

Using DM_out to compute the final energy and forces
No. of atoms with KB's overlaping orbs in proc 0. Max # of overlaps:      28     117

siesta: E_KS(eV) =            -2246.9862

siesta: E_KS - E_eggbox =     -2246.9862

siesta: Atomic forces (eV/Ang):
   Tot   -0.000000   -0.026814   -0.000000
   Max    5.683525
   Res    1.784328    sqrt( Sum f_i^2 / 3N )
   Max    5.683525    constrained

Stress tensor Voigt[x,y,z,yz,xz,xy] (kbar):        0.35       -5.61        0.00       -0.00        0.00       -0.00
(Free)E + p*V (eV/cell)    -2244.9860
Target enthalpy (eV/cell)    -2246.9934

siesta: Program's energy decomposition (eV):
siesta: Ebs     =      -811.442205
siesta: Eions   =      3905.673802
siesta: Ena     =      1022.630654
siesta: Ekin    =      1438.777749
siesta: Enl     =       -78.277506
siesta: Eso     =         0.000000
siesta: Edftu   =         0.000000
siesta: DEna    =        29.778793
siesta: DUscf   =         2.037367
siesta: DUext   =         0.000000
siesta: Ex      =      -663.315624
siesta: Ec      =       -92.943870
siesta: Exc     =      -756.259494
siesta: eta*DQ  =         0.000000
siesta: Emadel  =         0.000000
siesta: Emeta   =         0.000000
siesta: Emolmec =         0.000000
siesta: Ekinion =         0.000000
siesta: Eharris =     -2246.986239
siesta: Etot    =     -2246.986239
siesta: FreeEng =     -2246.993416

siesta: Final energy (eV):
siesta:  Band Struct. =    -811.442205
siesta:       Kinetic =    1438.777749
siesta:       Hartree =   11176.036695
siesta:       Edftu   =       0.000000
siesta:       Eso     =       0.000000
siesta:    Ext. field =       0.000000
siesta:         Exch. =    -663.315624
siesta:         Corr. =     -92.943870
siesta:   Exch.-corr. =    -756.259494
siesta:  Ion-electron =  -23758.008339
siesta:       Ion-ion =    9652.467150
siesta:       Ekinion =       0.000000
siesta:         Total =   -2246.986239
siesta:         Fermi =      -6.505161

siesta: Atomic forces (eV/Ang):
siesta:      1   -0.123516   -0.929195    0.000000
siesta:      2   -0.016627   -0.001029   -0.000000
siesta:      3   -0.119145    0.936471   -0.000000
siesta:      4    5.674944    0.177871   -0.000000
siesta:      5    0.506320    0.014754    0.000000
siesta:      6    0.507083   -0.019679   -0.000000
siesta:      7    5.683525   -0.192601   -0.000000
siesta:      8   -5.674944    0.177871   -0.000000
siesta:      9   -0.506320    0.014754   -0.000000
siesta:     10   -0.507083   -0.019679   -0.000000
siesta:     11   -5.683525   -0.192601   -0.000000
siesta:     12    0.123516   -0.929195    0.000000
siesta:     13    0.016627   -0.001029   -0.000000
siesta:     14    0.119145    0.936471    0.000000
siesta: ----------------------------------------
siesta:    Tot   -0.000000   -0.026814   -0.000000

siesta: Stress tensor (static) (eV/Ang**3):
siesta:     0.000220    0.000000   -0.000000
siesta:    -0.000000   -0.003502   -0.000000
siesta:     0.000000   -0.000000    0.000000

siesta: Cell volume =       1834.725012 Ang**3

siesta: Pressure (static):
siesta:                Solid            Molecule  Units
siesta:           0.00001192          0.00003279  Ry/Bohr**3
siesta:           0.00109414          0.00301022  eV/Ang**3
siesta:           1.75302896          4.82295350  kBar
(Free)E+ p_basis*V_orbitals  =       -2243.492898
(Free)Eharris+ p_basis*V_orbitals  =       -2243.492898

siesta: Electric dipole (a.u.)  =   -0.000000   -0.000148   -0.000000
siesta: Electric dipole (Debye) =   -0.000000   -0.000376   -0.000000

cite: Please see "agnr7.bib" for an exhaustive BiBTeX file.
cite: Please clearly indicate Siesta version in published work: 5.0.0-alpha-6-g46a0c9063
cite: This calculation has made use of the following articles
cite: which are encouraged to be cited in a published work.
        Primary SIESTA paper
          DOI: www.doi.org/10.1088/0953-8984/14/11/302

>> End of run:  24-MAY-2021  23:14:33
Job completed